p edge 550 540
e 1 2
e 1 3
e 1 4
e 1 5
e 1 6
e 1 7
e 1 8
e 1 9
e 1 10
e 1 11
e 1 12
e 1 13
e 1 14
e 1 15
e 1 16
e 1 17
e 1 18
e 1 19
e 1 20
e 1 21
e 1 22
e 1 23
e 1 24
e 1 25
e 1 26
e 1 27
e 1 28
e 1 29
e 1 30
e 1 31
e 1 32
e 1 33
e 1 34
e 1 35
e 1 36
e 1 37
e 1 38
e 1 39
e 1 40
e 41 42
e 41 43
e 41 44
e 41 45
e 41 46
e 41 47
e 41 48
e 41 49
e 41 50
e 41 51
e 41 52
e 41 53
e 41 54
e 41 55
e 41 56
e 41 57
e 41 58
e 41 59
e 41 60
e 41 61
e 41 62
e 41 63
e 41 64
e 41 65
e 41 66
e 41 67
e 41 68
e 41 69
e 41 70
e 41 71
e 41 72
e 41 73
e 41 74
e 41 75
e 41 76
e 41 77
e 41 78
e 41 79
e 41 80
e 41 81
e 41 82
e 41 83
e 41 84
e 41 85
e 41 86
e 87 88
e 87 89
e 87 90
e 87 91
e 87 92
e 87 93
e 87 94
e 87 95
e 87 96
e 87 97
e 87 98
e 87 99
e 87 100
e 87 101
e 87 102
e 87 103
e 87 104
e 87 105
e 87 106
e 87 107
e 87 108
e 87 109
e 87 110
e 87 111
e 87 112
e 87 113
e 87 114
e 87 115
e 87 116
e 87 117
e 87 118
e 87 119
e 87 120
e 87 121
e 87 122
e 87 123
e 87 124
e 87 125
e 87 126
e 87 127
e 87 128
e 87 129
e 87 130
e 131 132
e 131 133
e 131 134
e 131 135
e 131 136
e 131 137
e 131 138
e 131 139
e 131 140
e 131 141
e 131 142
e 131 143
e 131 144
e 131 145
e 131 146
e 131 147
e 131 148
e 131 149
e 131 150
e 131 151
e 131 152
e 131 153
e 131 154
e 131 155
e 131 156
e 131 157
e 131 158
e 131 159
e 131 160
e 131 161
e 131 162
e 131 163
e 131 164
e 131 165
e 131 166
e 131 167
e 131 168
e 131 169
e 131 170
e 131 171
e 131 172
e 131 173
e 131 174
e 131 175
e 131 176
e 131 177
e 131 178
e 131 179
e 131 180
e 131 181
e 131 182
e 131 183
e 131 184
e 131 185
e 131 186
e 131 187
e 131 188
e 131 189
e 131 190
e 131 191
e 131 192
e 131 193
e 131 194
e 131 195
e 131 196
e 131 197
e 131 198
e 131 199
e 131 200
e 131 201
e 131 202
e 131 203
e 131 204
e 131 205
e 131 206
e 131 207
e 131 208
e 131 209
e 131 210
e 211 212
e 211 213
e 211 214
e 211 215
e 211 216
e 211 217
e 211 218
e 211 219
e 211 220
e 211 221
e 211 222
e 211 223
e 211 224
e 211 225
e 211 226
e 211 227
e 211 228
e 211 229
e 211 230
e 211 231
e 211 232
e 211 233
e 211 234
e 211 235
e 211 236
e 211 237
e 211 238
e 211 239
e 211 240
e 211 241
e 211 242
e 211 243
e 211 244
e 211 245
e 211 246
e 211 247
e 211 248
e 211 249
e 211 250
e 211 251
e 211 252
e 211 253
e 211 254
e 211 255
e 211 256
e 211 257
e 211 258
e 211 259
e 211 260
e 211 261
e 211 262
e 211 263
e 211 264
e 211 265
e 211 266
e 211 267
e 211 268
e 211 269
e 211 270
e 211 271
e 211 272
e 211 273
e 211 274
e 211 275
e 211 276
e 211 277
e 211 278
e 211 279
e 211 280
e 211 281
e 211 282
e 211 283
e 211 284
e 211 285
e 211 286
e 211 287
e 211 288
e 211 289
e 211 290
e 211 291
e 211 292
e 211 293
e 211 294
e 211 295
e 211 296
e 211 297
e 211 298
e 211 299
e 211 300
e 301 302
e 301 303
e 301 304
e 301 305
e 301 306
e 301 307
e 301 308
e 301 309
e 301 310
e 301 311
e 301 312
e 301 313
e 301 314
e 301 315
e 301 316
e 301 317
e 301 318
e 301 319
e 301 320
e 301 321
e 301 322
e 301 323
e 301 324
e 301 325
e 301 326
e 301 327
e 301 328
e 301 329
e 301 330
e 301 331
e 301 332
e 301 333
e 301 334
e 301 335
e 301 336
e 301 337
e 301 338
e 301 339
e 301 340
e 301 341
e 301 342
e 301 343
e 301 344
e 301 345
e 301 346
e 301 347
e 301 348
e 301 349
e 301 350
e 301 351
e 301 352
e 301 353
e 301 354
e 301 355
e 301 356
e 301 357
e 301 358
e 301 359
e 301 360
e 301 361
e 301 362
e 301 363
e 301 364
e 301 365
e 301 366
e 301 367
e 301 368
e 301 369
e 301 370
e 301 371
e 301 372
e 301 373
e 301 374
e 301 375
e 301 376
e 301 377
e 301 378
e 301 379
e 380 381
e 380 382
e 380 383
e 380 384
e 380 385
e 380 386
e 380 387
e 380 388
e 380 389
e 380 390
e 380 391
e 380 392
e 380 393
e 380 394
e 380 395
e 396 397
e 396 398
e 396 399
e 396 400
e 396 401
e 396 402
e 396 403
e 396 404
e 396 405
e 396 406
e 396 407
e 396 408
e 396 409
e 396 410
e 396 411
e 396 412
e 396 413
e 396 414
e 396 415
e 396 416
e 396 417
e 396 418
e 396 419
e 396 420
e 396 421
e 396 422
e 396 423
e 396 424
e 396 425
e 396 426
e 396 427
e 396 428
e 396 429
e 396 430
e 396 431
e 396 432
e 396 433
e 396 434
e 396 435
e 396 436
e 437 438
e 437 439
e 437 440
e 437 441
e 437 442
e 437 443
e 437 444
e 437 445
e 437 446
e 437 447
e 437 448
e 437 449
e 437 450
e 437 451
e 437 452
e 437 453
e 437 454
e 437 455
e 437 456
e 437 457
e 437 458
e 437 459
e 437 460
e 437 461
e 437 462
e 437 463
e 437 464
e 437 465
e 437 466
e 437 467
e 437 468
e 437 469
e 437 470
e 437 471
e 437 472
e 437 473
e 437 474
e 437 475
e 437 476
e 437 477
e 437 478
e 437 479
e 437 480
e 437 481
e 437 482
e 437 483
e 437 484
e 437 485
e 437 486
e 437 487
e 437 488
e 437 489
e 437 490
e 437 491
e 437 492
e 437 493
e 437 494
e 495 496
e 495 497
e 495 498
e 495 499
e 495 500
e 495 501
e 495 502
e 495 503
e 495 504
e 495 505
e 495 506
e 495 507
e 495 508
e 495 509
e 495 510
e 495 511
e 495 512
e 495 513
e 495 514
e 495 515
e 495 516
e 495 517
e 495 518
e 495 519
e 495 520
e 495 521
e 495 522
e 495 523
e 495 524
e 495 525
e 495 526
e 495 527
e 495 528
e 495 529
e 495 530
e 495 531
e 495 532
e 495 533
e 495 534
e 495 535
e 495 536
e 495 537
e 495 538
e 495 539
e 495 540
e 495 541
e 495 542
e 495 543
e 495 544
e 495 545
e 495 546
e 495 547
e 495 548
e 495 549
e 495 550
